13375,11448,15191,9813,990,18209,11113,4766,22125,448,25874,25905,26010,19211,5759,8627,18309,20481,12740,11396,2939,6827,11782,2496,2410,16766,16413,20634,20503,13884,8230,20615,16134,12751,18030,18666,13122,22279,16268,14542,23871,13375